% Número total de personas
n = 5;

% Número de opiniones posibles
m = 5;

% Distribución inicial de personas por opinión
p = [1, 1, 1, 1, 1];

% Valores de las opiniones
v = [0.109, 0.391, 0.481, 0.789, 0.976];

% Costos extras al mover a opiniones vacías
ce = [5.556, 12.897, 18.251, 2.757, 3.138];

% Matriz de costos de mover de una opinión a otra
c = array2d(1..5, 1..5,
  [
    0.000,    2.427,    3.309,    2.866,    1.598,
    0.575,    0.000,    0.932,    2.230,    4.082,
    2.177,    3.632,    0.000,    2.745,    0.728,
    3.222,    0.569,    1.791,    0.000,    4.467,
    2.561,    2.530,    0.399,    3.137,    0.000
  ]);

% Costo total máximo permitido
ct = 16.380;

% Número máximo de movimientos permitidos
maxM = 5;
